(set-info :smt-lib-version 2.6)
(set-info :category "crafted")
(set-logic QF_FF)
(define-sort FF0 () (_ FiniteField 52435875175126190479447740508185965837690552500527637822603658699938581184513))
(declare-fun i () Bool)
(declare-fun b () Bool)
(declare-fun d () Bool)
(declare-fun g () Bool)
(declare-fun a () Bool)
(declare-fun j () Bool)
(declare-fun f () Bool)
(declare-fun l () Bool)
(declare-fun e () Bool)
(declare-fun h () Bool)
(declare-fun c () Bool)
(declare-fun k () Bool)
(declare-fun return_n10 () FF0)
(declare-fun mul_n19 () FF0)
(declare-fun h_n9 () FF0)
(declare-fun l_n12 () FF0)
(declare-fun mul_n18 () FF0)
(declare-fun j_n5 () FF0)
(declare-fun c_n8 () FF0)
(declare-fun mul_n17 () FF0)
(declare-fun e_n4 () FF0)
(declare-fun mul_n16 () FF0)
(declare-fun k_n3 () FF0)
(declare-fun is_zero_inv_n20 () FF0)
(declare-fun f_n2 () FF0)
(declare-fun i_n7 () FF0)
(declare-fun mul_n15 () FF0)
(declare-fun mul_n13 () FF0)
(declare-fun mul_n14 () FF0)
(declare-fun a_n1 () FF0)
(declare-fun g_n0 () FF0)
(declare-fun b_n11 () FF0)
(declare-fun d_n6 () FF0)
(assert 
  (let ((let0 i))
  (let ((let1 b))
  (let ((let2 d))
  (let ((let3 (=> let2 let1)))
  (let ((let4 g))
  (let ((let5 a))
  (let ((let6 (= let5 let4)))
  (let ((let7 (and let6 let3 let0)))
  (let ((let8 j))
  (let ((let9 (not let8)))
  (let ((let10 f))
  (let ((let11 (=> let10 let10)))
  (let ((let12 l))
  (let ((let13 e))
  (let ((let14 (= let13 let12)))
  (let ((let15 h))
  (let ((let16 c))
  (let ((let17 (= let16 let15)))
  (let ((let18 k))
  (let ((let19 (and let18 let17 let14 let11 let9 let7)))
  (let ((let20 return_n10))
  (let ((let21 (as ff1 FF0)))
  (let ((let22 (= let21 let20)))
  (let ((let23 (= let22 let19)))
  (let ((let24 (as ff0 FF0)))
  (let ((let25 (= let24 let20)))
  (let ((let26 (or let22 let25)))
  (let ((let27 (and let26 let23)))
  (let ((let28 (as ff2 FF0)))
  (let ((let29 (as ff52435875175126190479447740508185965837690552500527637822603658699938581184512 FF0)))
  (let ((let30 mul_n19))
  (let ((let31 (ff.mul let30 let29)))
  (let ((let32 h_n9))
  (let ((let33 l_n12))
  (let ((let34 mul_n18))
  (let ((let35 (ff.mul let34 let29)))
  (let ((let36 j_n5))
  (let ((let37 c_n8))
  (let ((let38 mul_n17))
  (let ((let39 e_n4))
  (let ((let40 mul_n16))
  (let ((let41 (ff.mul let40 let29)))
  (let ((let42 k_n3))
  (let ((let43 (ff.mul let42 let29)))
  (let ((let44 (ff.add let43 let41 let39 let38 let37 let36 let35 let33 let32 let31 let28)))
  (let ((let45 (ff.mul let20 let44)))
  (let ((let46 (= let45 let24)))
  (let ((let47 (ff.mul let20 let29)))
  (let ((let48 (ff.add let47 let21)))
  (let ((let49 is_zero_inv_n20))
  (let ((let50 (ff.mul let49 let44)))
  (let ((let51 (= let50 let48)))
  (let ((let52 (ff.mul let37 let28)))
  (let ((let53 (ff.mul let52 let32)))
  (let ((let54 (= let53 let30)))
  (let ((let55 (ff.mul let39 let28)))
  (let ((let56 (ff.mul let55 let33)))
  (let ((let57 (= let56 let34)))
  (let ((let58 f_n2))
  (let ((let59 (ff.mul let58 let29)))
  (let ((let60 (ff.add let59 let21)))
  (let ((let61 (ff.mul let58 let60)))
  (let ((let62 (= let61 let38)))
  (let ((let63 i_n7))
  (let ((let64 mul_n15))
  (let ((let65 (ff.mul let64 let63)))
  (let ((let66 (= let65 let40)))
  (let ((let67 mul_n13))
  (let ((let68 (ff.mul let67 let29)))
  (let ((let69 (ff.add let68 let21)))
  (let ((let70 mul_n14))
  (let ((let71 a_n1))
  (let ((let72 (ff.mul let71 let29)))
  (let ((let73 g_n0))
  (let ((let74 (ff.mul let73 let29)))
  (let ((let75 (ff.add let74 let72 let70 let21)))
  (let ((let76 (ff.mul let75 let69)))
  (let ((let77 (= let76 let64)))
  (let ((let78 (ff.mul let71 let28)))
  (let ((let79 (ff.mul let78 let73)))
  (let ((let80 (= let79 let70)))
  (let ((let81 b_n11))
  (let ((let82 (ff.mul let81 let29)))
  (let ((let83 (ff.add let82 let21)))
  (let ((let84 d_n6))
  (let ((let85 (ff.mul let84 let83)))
  (let ((let86 (= let85 let67)))
  (let ((let87 (and let86 let80 let77 let66 let62 let57 let54 let51 let46)))
  (let ((let88 (ite let12 let21 let24)))
  (let ((let89 (= let33 let88)))
  (let ((let90 (ite let0 let21 let24)))
  (let ((let91 (= let63 let90)))
  (let ((let92 (ite let18 let21 let24)))
  (let ((let93 (= let42 let92)))
  (let ((let94 (ite let10 let21 let24)))
  (let ((let95 (= let58 let94)))
  (let ((let96 (ite let5 let21 let24)))
  (let ((let97 (= let71 let96)))
  (let ((let98 (ite let2 let21 let24)))
  (let ((let99 (= let84 let98)))
  (let ((let100 (ite let8 let21 let24)))
  (let ((let101 (= let36 let100)))
  (let ((let102 (ite let13 let21 let24)))
  (let ((let103 (= let39 let102)))
  (let ((let104 (ite let1 let21 let24)))
  (let ((let105 (= let81 let104)))
  (let ((let106 (ite let4 let21 let24)))
  (let ((let107 (= let73 let106)))
  (let ((let108 (ite let15 let21 let24)))
  (let ((let109 (= let32 let108)))
  (let ((let110 (ite let16 let21 let24)))
  (let ((let111 (= let37 let110)))
  (let ((let112 (and let111 let109 let107 let105 let103 let101 let99 let97 let95 let93 let91 let89)))
  (let ((let113 (and let112 let87)))
  (let ((let114 (=> let113 let27)))
  (let ((let115 (not let114)))
  let115
))))))))))))))))))))))))))))))))))))))))))))))))))))))))))))))))))))))))))))))))))))))))))))))))))))))))))))))))))))
)
(check-sat)
